50
19417

871 610
879 964
61 555
749 224
366 806
746 499
675 413
450 532
617 440
576 336
311 288
357 124
883 571
993 188
348 372
762 295
946 386
769 132
653 917
150 61
255 393
166 638
57 821
863 424
149 352
457 660
63 104
400 316
440 151
116 201
808 604
495 746
491 593
100 776
710 712
464 713
752 984
408 628
234 21
484 218
843 296
272 367
111 79
9 896
176 817
358 537
439 307
240 258
857 914
353 131
